* ENCODING=ISO-8859-1
NAME          CPLEX
ROWS
 N  obj1    
 G  c1      
 G  c2      
 G  c3      
 G  c4      
 G  c5      
 G  c6      
 G  c7      
 G  c8      
 G  c9      
 G  c10     
 G  c11     
 G  c12     
 G  c13     
 G  c14     
 G  c15     
 G  c16     
 G  c17     
 G  c18     
 G  c19     
 G  c20     
 G  c21     
 G  c22     
 G  c23     
 G  c24     
 G  c25     
 G  c26     
 G  c27     
 G  c28     
 G  c29     
 G  c30     
COLUMNS
    MARK0000  'MARKER'                 'INTORG'
    x1        obj1                            1
    x1        c4                            105
    x1        c13                           427
    x1        c14                           576
    x1        c20                           806
    x1        c22                           472
    x1        c24                           978
    x1        c28                           182
    x2        obj1                            1
    x2        c2                           1000
    x2        c25                           829
    x3        obj1                            1
    x3        c16                           153
    x3        c27                           302
    x4        obj1                            1
    x4        c16                           712
    x4        c21                           277
    x5        obj1                            1
    x5        c9                            202
    x5        c11                           215
    x6        obj1                            1
    x6        c18                           233
    x6        c19                           515
    x6        c22                           180
    x6        c24                           975
    x6        c28                           416
    x6        c30                           879
    x7        obj1                            1
    x7        c7                            584
    x7        c20                           327
    x8        obj1                            1
    x8        c3                            162
    x8        c14                           572
    x8        c24                           285
    x9        obj1                            1
    x9        c6                            946
    x9        c9                            552
    x9        c17                           915
    x9        c30                           101
    x10       obj1                            1
    x10       c7                            421
    x10       c9                            280
    x10       c26                           192
    x11       obj1                            1
    x12       obj1                            1
    x12       c5                            707
    x12       c8                            965
    x12       c21                           677
    x12       c24                           459
    x13       obj1                            1
    x13       c11                           727
    x13       c15                           768
    x14       obj1                            1
    x14       c4                            686
    x14       c30                           369
    x15       obj1                            1
    x15       c23                           296
    x16       obj1                            1
    x16       c16                           689
    x16       c17                           717
    x16       c25                           928
    x16       c27                           167
    x16       c30                           342
    x17       obj1                            1
    x18       obj1                            1
    x18       c19                           359
    x19       obj1                            1
    x19       c17                           195
    x19       c23                           492
    x20       obj1                            1
    x20       c10                           631
    x20       c15                           697
    x20       c30                           269
    x21       obj1                            1
    x21       c6                            509
    x21       c29                           229
    x21       c30                           763
    x22       obj1                            1
    x22       c1                            539
    x22       c6                            693
    x22       c9                            171
    x22       c21                           476
    x22       c30                           376
    x23       obj1                            1
    x23       c30                           649
    x24       obj1                            1
    x24       c3                            614
    x24       c8                            400
    x24       c15                           237
    x24       c27                           142
    x24       c29                           335
    x25       obj1                            1
    x25       c7                            712
    x25       c20                           816
    x26       obj1                            1
    x26       c29                           954
    x27       obj1                            1
    x27       c12                           282
    x27       c29                           436
    x28       obj1                            1
    x28       c11                           359
    x28       c16                           939
    x28       c25                           790
    x28       c28                           663
    x29       obj1                            1
    x29       c1                            749
    x29       c9                            689
    x29       c14                           582
    x30       obj1                            1
    x30       c8                            980
    x30       c16                           444
    x30       c17                           621
    x30       c27                           205
    x30       c28                           729
    x31       obj1                            1
    x31       c7                            884
    x32       obj1                            1
    x32       c4                            703
    x32       c8                            229
    x32       c10                           903
    x32       c15                           368
    x32       c27                           726
    x33       obj1                            1
    x33       c3                            647
    x33       c6                            700
    x33       c7                            671
    x33       c26                           651
    x34       obj1                            1
    x34       c3                            627
    x34       c4                            483
    x34       c24                           774
    x35       obj1                            1
    x35       c4                            329
    x35       c13                           126
    x35       c14                           257
    x35       c19                           203
    x36       obj1                            1
    x36       c16                           690
    x36       c17                           190
    x37       obj1                            1
    x37       c9                            519
    x37       c12                           215
    x37       c15                           559
    x38       obj1                            1
    x38       c6                            701
    x38       c15                           949
    x39       obj1                            1
    x39       c1                            628
    x39       c24                           368
    x40       obj1                            1
    x40       c18                           730
    x41       obj1                            1
    x41       c11                           584
    x42       obj1                            1
    x42       c14                           689
    x42       c15                           972
    x42       c25                           644
    x43       obj1                            1
    x43       c2                            434
    x44       obj1                            1
    x44       c1                            224
    x44       c11                           823
    x44       c14                           257
    x44       c24                           147
    x45       obj1                            1
    x45       c6                            979
    x45       c16                           226
    x45       c17                           278
    x45       c23                           968
    x46       obj1                            1
    x47       obj1                            1
    x47       c12                           566
    x47       c22                           855
    x47       c24                           362
    x47       c26                           530
    x47       c27                           175
    x47       c28                           518
    x48       obj1                            1
    x48       c9                            779
    x48       c14                           823
    x48       c18                           614
    x49       obj1                            1
    x49       c12                           964
    x50       obj1                            1
    x50       c6                            388
    x50       c13                           503
    x51       obj1                            1
    x51       c1                            835
    x51       c19                           105
    x52       obj1                            1
    x52       c10                           755
    x52       c19                           646
    x52       c22                           654
    x53       obj1                            1
    x53       c5                            699
    x53       c17                           506
    x53       c23                           843
    x54       obj1                            1
    x54       c15                           466
    x54       c22                           968
    x54       c24                           766
    x55       obj1                            1
    x55       c15                           404
    x55       c23                           489
    x55       c30                           316
    x56       obj1                            1
    x56       c27                           598
    x57       obj1                            1
    x58       obj1                            1
    x58       c13                           880
    x58       c20                           882
    x59       obj1                            1
    x59       c2                            334
    x59       c5                            394
    x59       c23                           566
    x60       obj1                            1
    x60       c6                            695
    x60       c10                           221
    x60       c27                           668
    MARK0001  'MARKER'                 'INTEND'
RHS
    rhs       c1                           1488
    rhs       c2                            884
    rhs       c3                           1025
    rhs       c4                           1153
    rhs       c5                            900
    rhs       c6                           2806
    rhs       c7                           1636
    rhs       c8                           1287
    rhs       c9                           1596
    rhs       c10                          1255
    rhs       c11                          1354
    rhs       c12                          1014
    rhs       c13                           968
    rhs       c14                          1878
    rhs       c15                          2710
    rhs       c16                          1927
    rhs       c17                          1711
    rhs       c18                           789
    rhs       c19                           914
    rhs       c20                          1416
    rhs       c21                           715
    rhs       c22                          1565
    rhs       c23                          1827
    rhs       c24                          2557
    rhs       c25                          1596
    rhs       c26                           687
    rhs       c27                          1492
    rhs       c28                          1254
    rhs       c29                           977
    rhs       c30                          2032
BOUNDS
 LI bnd       x1        0
 LI bnd       x2        0
 LI bnd       x3        0
 LI bnd       x4        0
 LI bnd       x5        0
 LI bnd       x6        0
 LI bnd       x7        0
 LI bnd       x8        0
 LI bnd       x9        0
 LI bnd       x10       0
 LI bnd       x11       0
 LI bnd       x12       0
 LI bnd       x13       0
 LI bnd       x14       0
 LI bnd       x15       0
 LI bnd       x16       0
 LI bnd       x17       0
 LI bnd       x18       0
 LI bnd       x19       0
 LI bnd       x20       0
 LI bnd       x21       0
 LI bnd       x22       0
 LI bnd       x23       0
 LI bnd       x24       0
 LI bnd       x25       0
 LI bnd       x26       0
 LI bnd       x27       0
 LI bnd       x28       0
 LI bnd       x29       0
 LI bnd       x30       0
 LI bnd       x31       0
 LI bnd       x32       0
 LI bnd       x33       0
 LI bnd       x34       0
 LI bnd       x35       0
 LI bnd       x36       0
 LI bnd       x37       0
 LI bnd       x38       0
 LI bnd       x39       0
 LI bnd       x40       0
 LI bnd       x41       0
 LI bnd       x42       0
 LI bnd       x43       0
 LI bnd       x44       0
 LI bnd       x45       0
 LI bnd       x46       0
 LI bnd       x47       0
 LI bnd       x48       0
 LI bnd       x49       0
 LI bnd       x50       0
 LI bnd       x51       0
 LI bnd       x52       0
 LI bnd       x53       0
 LI bnd       x54       0
 LI bnd       x55       0
 LI bnd       x56       0
 LI bnd       x57       0
 LI bnd       x58       0
 LI bnd       x59       0
 LI bnd       x60       0
ENDATA
